NAME : single
TYPE : ATSP
DIMENSION : 10
EDGE_WEIGHT_TYPE : EXPLICIT
EDGE_WEIGHT_FORMAT : FULL_MATRIX
EDGE_WEIGHT_SECTION
0 50116 50146 50141 50138 50156 50186 50149 50103 50118 
0 0 238 230 302 650 598 463 364 50000 
0 238 0 76 175 443 309 50000 50000 50000 
0 230 76 0 129 421 365 50000 50000 50000 
0 302 175 129 0 359 448 50000 50000 50000 
0 650 443 421 359 0 50000 50000 50000 50000 
0 598 309 365 448 50000 0 262 461 50000 
0 463 50000 50000 50000 50000 262 0 246 50000 
0 364 50000 50000 50000 50000 461 246 0 50000 
0 50000 50000 50000 50000 50000 50000 50000 50000 0 
EOF